CP/rotation/data/31x31.dzn
h = 31;
w = 31;
n_pieces = 19;
n_shapes = 37;
shape = [{1}, {2}, {3}, {4}, {5}, {6}, {7}, {8}, {9}, {10}, {11}, {12}, {13}, {14}, {15}, {16}, {17}, {18}, {19}, {20}, {21}, {22}, {23}, {24}, {25}, {26}, {27}, {28}, {29}, {30}, {31}, {32}, {33}, {34}, {35}, {36}, {37}];
shape_index = [{1}, {2, 3}, {4, 5}, {6, 7}, {8, 9}, {10, 11}, {12, 13}, {14, 15}, {16, 17}, {18, 19}, {20, 21}, {22, 23}, {24, 25}, {26, 27}, {28, 29}, {30, 31}, {32, 33}, {34, 35}, {36, 37}];
rect_rep = [1, 1, 1, 1, 1, 1, 1, 1, 1, 1, 1, 1, 1, 1, 1, 1, 1, 1, 1];
rect_copies = 19;
coordinate_shapes = [0, 1, 2, 3, 4, 5, 6, 7, 8, 9, 10, 11, 12, 13, 14, 15, 16, 17, 18];
rect_size = [|3, 3
|3, 4
|4, 3
|3, 5
|5, 3
|3, 6
|6, 3
|3, 7
|7, 3
|3, 8
|8, 3
|3, 9
|9, 3
|3, 10
|10, 3
|3, 11
|11, 3
|3, 12
|12, 3
|3, 13
|13, 3
|3, 14
|14, 3
|3, 22
|22, 3
|3, 31
|31, 3
|4, 3
|3, 4
|4, 7
|7, 4
|4, 8
|8, 4
|4, 13
|13, 4
|12, 31
|31, 12
|];
rect_offset = [|0, 0
|0, 0
|0, 0
|0, 0
|0, 0
|0, 0
|0, 0
|0, 0
|0, 0
|0, 0
|0, 0
|0, 0
|0, 0
|0, 0
|0, 0
|0, 0
|0, 0
|0, 0
|0, 0
|0, 0
|0, 0
|0, 0
|0, 0
|0, 0
|0, 0
|0, 0
|0, 0
|0, 0
|0, 0
|0, 0
|0, 0
|0, 0
|0, 0
|0, 0
|0, 0
|0, 0
|0, 0
|];
rectangles = [|3, 3
|3, 4
|3, 5
|3, 6
|3, 7
|3, 8
|3, 9
|3, 10
|3, 11
|3, 12
|3, 13
|3, 14
|3, 22
|3, 31
|4, 3
|4, 7
|4, 8
|4, 13
|12, 31
|];
